Minimize
  - 11 y_0 - 12 y_1 - 15 y_2 - 23 y_3 - 12 y_4 - 18 y_5 - 9 y_7 - 12 y_8
   - 5 y_9 + 43 x_0_6 + 34 x_0_8 + 5 x_1_4 + 47 x_1_6 + 15 x_1_7 + 19 x_1_8
   + 30 x_2_3 + 14 x_2_4 + 41 x_2_5 + 62 x_2_6 + 57 x_2_9 + 43 x_3_4
   + 92 x_3_6 + 85 x_3_9 + 46 x_4_5 + 49 x_4_6 + 44 x_4_9 + 72 x_5_6
   + 70 x_5_8 + 34 x_6_7 + 28 x_7_8 + 33 x_7_9 + 34 x_8_9 + 117 Constant
Subject To
 c_0: y_4 = 1
 c_1_0: y_0 >= 1
 c_1_1: y_1 + y_4 >= 1
 c_1_2: y_2 >= 1
 c_1_3: y_3 >= 1
 c_1_4: y_1 + y_4 >= 1
 c_1_5: y_5 >= 1
 c_1_6: y_6 >= 1
 c_1_7: y_7 >= 1
 c_1_8: y_8 >= 1
 c_1_9: y_9 >= 1
 c_2_0: - 2 y_0 + x_0_6 + x_0_8 = 0
 c_2_1: - 2 y_1 + x_1_4 + x_1_6 + x_1_7 + x_1_8 = 0
 c_2_2: - 2 y_2 + x_2_3 + x_2_4 + x_2_5 + x_2_6 + x_2_9 = 0
 c_2_3: - 2 y_3 + x_2_3 + x_3_4 + x_3_6 + x_3_9 = 0
 c_2_4: - 2 y_4 + x_1_4 + x_2_4 + x_3_4 + x_4_5 + x_4_6 + x_4_9 = 0
 c_2_5: - 2 y_5 + x_2_5 + x_4_5 + x_5_6 + x_5_8 = 0
 c_2_6: - 2 y_6 + x_0_6 + x_1_6 + x_2_6 + x_3_6 + x_4_6 + x_5_6 + x_6_7
   = 0
 c_2_7: - 2 y_7 + x_1_7 + x_6_7 + x_7_8 + x_7_9 = 0
 c_2_8: - 2 y_8 + x_0_8 + x_1_8 + x_5_8 + x_7_8 + x_8_9 = 0
 c_2_9: - 2 y_9 + x_2_9 + x_3_9 + x_4_9 + x_7_9 + x_8_9 = 0
Bounds
 Constant = 1
Binaries
 y_0 y_1 y_2 y_3 y_4 y_5 y_6 y_7 y_8 y_9 x_0_6 x_0_8 x_1_4 x_1_6 x_1_7
 x_1_8 x_2_3 x_2_4 x_2_5 x_2_6 x_2_9 x_3_4 x_3_6 x_3_9 x_4_5 x_4_6 x_4_9
 x_5_6 x_5_8 x_6_7 x_7_8 x_7_9 x_8_9
End
